NAME          ClpDefau  FREE
ROWS
 N  OBJROW
 L  ZMUNI1_PCT
 L  ZMUNI2_PCT
 L  ZMUNI3_PCT
 L  ZMUNI4_PCT
 L  ZMUNI5_PCT
 L  ZMUNI6_PCT
 L  ZMUNI7_PCT
 L  ZMUNI8_PCT
 L  ZMUNI9_PCT
COLUMNS
    QMUNI1 OBJROW 1.          
    QMUNI1 ZMUNI1_PCT 29454.2312  
    QMUNI1 ZMUNI2_PCT 2163.3148   
    QMUNI1 ZMUNI3_PCT 5232.048    
    QMUNI1 ZMUNI4_PCT 3582.7637   
    QMUNI1 ZMUNI5_PCT 640.1062    
    QMUNI1 ZMUNI6_PCT 900.0778    
    QMUNI1 ZMUNI7_PCT 2057.26624  
    QMUNI1 ZMUNI8_PCT 1777.45819  
    QMUNI1 ZMUNI9_PCT 1112.5565   
    QMUNI2 OBJROW 1.          
    QMUNI2 ZMUNI1_PCT 2013.5879   
    QMUNI2 ZMUNI2_PCT 32935.8101  
    QMUNI2 ZMUNI3_PCT 2899.9328   
    QMUNI2 ZMUNI4_PCT 2879.3335   
    QMUNI2 ZMUNI5_PCT  -193.7866  
    QMUNI2 ZMUNI6_PCT  -80.8716   
    QMUNI2 ZMUNI7_PCT 678.7777    
    QMUNI2 ZMUNI8_PCT 908.54167   
    QMUNI2 ZMUNI9_PCT 845.5277    
    QMUNI3 OBJROW 1.          
    QMUNI3 ZMUNI1_PCT 5499.649    
    QMUNI3 ZMUNI2_PCT 3273.1056   
    QMUNI3 ZMUNI3_PCT 30787.4679  
    QMUNI3 ZMUNI4_PCT 5934.906    
    QMUNI3 ZMUNI5_PCT 415.0391    
    QMUNI3 ZMUNI6_PCT 662.6129    
    QMUNI3 ZMUNI7_PCT 2035.62975  
    QMUNI3 ZMUNI8_PCT 2074.81384  
    QMUNI3 ZMUNI9_PCT 1686.287    
    QMUNI4 OBJROW 1.          
    QMUNI4 ZMUNI1_PCT 4138.7558   
    QMUNI4 ZMUNI2_PCT 3522.11     
    QMUNI4 ZMUNI3_PCT 6625.9384   
    QMUNI4 ZMUNI4_PCT 95544.8151  
    QMUNI4 ZMUNI5_PCT 130.8442    
    QMUNI4 ZMUNI6_PCT 330.5435    
    QMUNI4 ZMUNI7_PCT 1482.89204  
    QMUNI4 ZMUNI8_PCT 1571.60758  
    QMUNI4 ZMUNI9_PCT 1308.0597   
    QMUNI5 OBJROW 1.          
    QMUNI5 ZMUNI1_PCT 76.4846     
    QMUNI5 ZMUNI2_PCT  -133.5144  
    QMUNI5 ZMUNI3_PCT  -2.575     
    QMUNI5 ZMUNI4_PCT  -21.7437   
    QMUNI5 ZMUNI5_PCT 29319.0003  
    QMUNI5 ZMUNI6_PCT 3068.3518   
    QMUNI5 ZMUNI7_PCT  -237.25032 
    QMUNI5 ZMUNI8_PCT  -463.03273 
    QMUNI5 ZMUNI9_PCT  -850.6775  
    QMUNI6 OBJROW 1.          
    QMUNI6 ZMUNI1_PCT 13.5421     
    QMUNI6 ZMUNI2_PCT  -178.4325  
    QMUNI6 ZMUNI3_PCT  -91.6481   
    QMUNI6 ZMUNI4_PCT  -131.607   
    QMUNI6 ZMUNI5_PCT 2766.037    
    QMUNI6 ZMUNI6_PCT 31146.431   
    QMUNI6 ZMUNI7_PCT 61.33318    
    QMUNI6 ZMUNI8_PCT  -213.02701 
    QMUNI6 ZMUNI9_PCT  -534.0576  
    QMUNI7 OBJROW 1.          
    QMUNI7 ZMUNI1_PCT 1710.3195   
    QMUNI7 ZMUNI2_PCT 889.2059    
    QMUNI7 ZMUNI3_PCT 1448.4405   
    QMUNI7 ZMUNI4_PCT 1028.8239   
    QMUNI7 ZMUNI5_PCT  -164.6041  
    QMUNI7 ZMUNI6_PCT 145.7214    
    QMUNI7 ZMUNI7_PCT 25559.07965 
    QMUNI7 ZMUNI8_PCT 2209.0435   
    QMUNI7 ZMUNI9_PCT 646.5912    
    QMUNI8 OBJROW 1.          
    QMUNI8 ZMUNI1_PCT 1674.8428   
    QMUNI8 ZMUNI2_PCT 1399.0402   
    QMUNI8 ZMUNI3_PCT 1664.1616   
    QMUNI8 ZMUNI4_PCT 1253.5095   
    QMUNI8 ZMUNI5_PCT 321.579     
    QMUNI8 ZMUNI6_PCT 505.6381    
    QMUNI8 ZMUNI7_PCT 2724.77866  
    QMUNI8 ZMUNI8_PCT 25629.61578 
    QMUNI8 ZMUNI9_PCT 2220.726    
    QMUNI9 OBJROW 1.          
    QMUNI9 ZMUNI1_PCT 746.7269    
    QMUNI9 ZMUNI2_PCT 983.1428    
    QMUNI9 ZMUNI3_PCT 823.2116    
    QMUNI9 ZMUNI4_PCT 677.8717    
    QMUNI9 ZMUNI5_PCT 371.7423    
    QMUNI9 ZMUNI6_PCT 416.9464    
    QMUNI9 ZMUNI7_PCT 841.06923   
    QMUNI9 ZMUNI8_PCT 1363.68274  
    QMUNI9 ZMUNI9_PCT 25552.5589  
RHS
    RHS ZMUNI1_PCT 1.0703949323
    RHS ZMUNI2_PCT  -1.41663827
    RHS ZMUNI3_PCT  -1.40579366
    RHS ZMUNI4_PCT 1.669401344 
    RHS ZMUNI5_PCT 0.5040506125
    RHS ZMUNI6_PCT 1.6318446776
    RHS ZMUNI7_PCT  -2.01483891
    RHS ZMUNI8_PCT  -4.10042444
    RHS ZMUNI9_PCT 0.1814913875
BOUNDS
 LO BOUND QMUNI1 -0.002042965
 UP BOUND QMUNI1      1.1e+10
 LO BOUND QMUNI2 -0.00131912 
 UP BOUND QMUNI2      1.1e+10
 LO BOUND QMUNI3 -0.001380566
 UP BOUND QMUNI3      1.1e+10
 LO BOUND QMUNI4 -0.000597741
 UP BOUND QMUNI4      1.1e+10
 LO BOUND QMUNI5 -0.001757176
 UP BOUND QMUNI5      1.1e+10
 LO BOUND QMUNI6 -0.002050274
 UP BOUND QMUNI6      1.1e+10
 LO BOUND QMUNI7 -0.001074146
 UP BOUND QMUNI7      1.1e+10
 LO BOUND QMUNI8 -0.001261162
 UP BOUND QMUNI8      1.1e+10
 LO BOUND QMUNI9 -0.002377726
 UP BOUND QMUNI9      1.1e+10
ENDATA
